189 228 229 230 231 533 532 489 531 530 233 232 234 235 236 237 240 239 238 246 247 245 244 243 242 241 248 249 250 251 252 254 253 255 256 257 300 299 258 259 260 261 262 263 264 265 266 298 297 296 295 294 293 291 292 270 268 267 271 269 272 273 274 275 276 277 290 289 288 278 279 282 281 280 287 286 285 284 283 334 335 336 337 338 339 333 332 331 330 340 341 344 343 342 366 329 328 327 326 325 324 323 322 373 374 315 314 316 313 305 317 321 320 319 318 306 304 307 303 301 302 508 507 506 509 510 511 513 512 527 528 529 490 491 492 493 525 526 523 521 522 514 515 516 517 520 524 494 495 518 519 498 502 503 504 505 308 309 310 311 312 451 501 500 499 452 453 440 441 450 449 448 442 439 443 444 445 446 447 380 379 378 377 376 375 395 396 371 372 370 369 368 367 365 364 363 362 346 345 347 348 349 350 351 415 416 414 413 352 353 354 355 357 358 359 361 360 401 403 402 356 412 411 410 418 417 419 420 421 422 423 426 424 425 383 384 385 409 405 404 400 406 408 407 399 398 397 394 393 391 392 381 390 389 388 387 386 382 431 427 428 429 430 432 433 434 435 436 437 438 454 455 456 457 458 459 460 461 462 463 497 496 464 465 470 471 472 473 474 469 468 467 466 571 572 573 0 1 2 3 4 5 6 7 8 9 10 11 16 15 14 13 12 23 22 31 32 30 29 28 27 26 25 24 21 20 19 18 17 570 569 568 567 566 565 564 563 562 561 560 549 548 478 477 479 480 476 475 482 481 483 484 485 486 487 488 534 535 536 537 539 538 540 176 175 174 173 172 170 171 169 168 163 167 166 164 162 160 161 113 112 114 111 110 109 108 107 542 541 543 544 545 546 547 103 104 105 106 115 116 128 127 126 125 124 71 123 122 117 121 120 119 118 95 96 97 94 93 92 91 555 556 554 553 552 100 99 98 102 101 551 550 559 558 557 35 34 33 36 37 38 40 41 39 42 43 44 45 46 47 48 49 50 51 52 54 53 55 56 58 57 82 83 84 85 86 87 90 89 88 79 80 81 59 60 61 63 62 78 77 76 64 75 74 73 72 65 66 67 68 70 69 138 137 129 130 131 132 133 134 135 136 139 140 141 151 150 149 152 148 147 142 143 144 146 145 158 157 159 156 155 153 154 165 203 204 202 201 200 199 198 205 206 207 208 209 210 211 212 213 214 215 216 217 223 224 222 221 220 218 219 225 226 190 191 192 193 194 195 196 197 184 183 185 186 182 179 181 180 177 178 187 188 227